1
1000
43
257 1
130 1
131 1
136 1
265 1
266 1
139 2
268 1
141 1
270 1
143 2
146 1
275 1
276 1
149 1
150 1
285 1
159 1
295 1
241 2
177 2
178 1
194 1
195 1
200 1
207 1
209 1
215 1
216 1
223 1
224 1
229 1
102 1
103 1
231 2
236 1
113 2
242 2
115 1
116 1
246 1
125 1
254 1
